
(set-logic ALL) 

(declare-datatype MyList ((Nil) (Cons (head Real) (tail MyList)) )) 
(declare-fun l0 () MyList) 
(declare-fun l1 () MyList) 
(declare-fun l2 () MyList) 
(declare-fun l3 () MyList) 
(declare-fun i0 () Real) 
(declare-fun i1 () Real) 
(assert (= l3 Nil) )
(assert (not (is-Nil l0)) )
(assert (and (= l1 Nil) (= l1 Nil) (is-Cons Nil) (is-Cons Nil)) )
(assert (or (is-Cons Nil) (is-Nil l1)) )
(assert (= l1 Nil) )
(assert (not (is-Nil Nil)) )
(assert (= l0 Nil) )
(assert (not (is-Nil l3)) )
(check-sat)
